Optimal - objective value 313.00000000
     25 x0_25                  1                      10
     26 x0_26                  1                       2
     30 x1_0                   1                      13
     36 x1_6                   1                      17
     50 x1_20                  1                       2
     58 x1_28                  1                       0
     62 x2_2                   1                      20
     76 x2_16                  1                       7
     81 x2_21                  1                       6
     82 x2_22                  1                       1
     95 x3_5                   1                       2
    105 x3_15                  1                      19
    108 x3_18                  1                       0
    124 x4_4                   1                      20
    129 x4_9                   1                       4
    151 x5_1                   1                       4
    157 x5_7                   1                       9
    167 x5_17                  1                       4
    174 x5_24                  1                      14
    188 x6_8                   1                       6
    191 x6_11                  1                       1
    220 x7_10                  1                      17
    233 x7_23                  1                       1
    252 x8_12                  1                      11
    253 x8_13                  1                      37
    259 x8_19                  1                      12
    267 x8_27                  1                       4
    273 x9_3                   1         12.7777777777778
    284 x9_14                  1                      37
    299 x9_29                  1         12.5555555555556
